node 0 w: 6.16, h: 12.95
node 1 w: 4.9, h: 12.95
node 2 w: 8.2026-06-13 13:02:09 - INFO - Set parameter WLSAccessID
2026-06-13 13:02:09 - INFO - Set parameter WLSSecret
2026-06-13 13:02:09 - INFO - Set parameter LicenseID to value 2756663
2026-06-13 13:02:09 - INFO - Academic license 2756663 - for non-commercial use only - registered to hu___@sjtu.edu.cn
2026-06-13 13:02:09 - INFO - Set parameter TimeLimit to value 300
2026-06-13 13:02:09 - INFO - Set parameter MIPGap to value 0
2026-06-13 13:02:09 - INFO - Set parameter MIPFocus to value 3
2026-06-13 13:02:09 - INFO - Set parameter Heuristics to value 0.5
2026-06-13 13:02:09 - INFO - Set parameter LogToConsole to value 1
2026-06-13 13:02:09 - INFO - Gurobi Optimizer version 13.0.1 build v13.0.1rc0 (linux64 - "Ubuntu 20.04.6 LTS")
2026-06-13 13:02:09 - INFO - 
2026-06-13 13:02:09 - INFO - CPU model: AMD Ryzen 9 9950X3D 16-Core Processor, instruction set [SSE2|AVX|AVX2|AVX512]
2026-06-13 13:02:09 - INFO - Thread count: 14 physical cores, 28 logical processors, using up to 28 threads
2026-06-13 13:02:09 - INFO - 
2026-06-13 13:02:09 - INFO - Non-default parameters:
2026-06-13 13:02:09 - INFO - TimeLimit  300
2026-06-13 13:02:09 - INFO - MIPGap  0
2026-06-13 13:02:09 - INFO - Heuristics  0.5
2026-06-13 13:02:09 - INFO - MIPFocus  3
2026-06-13 13:02:09 - INFO - 
2026-06-13 13:02:09 - INFO - Academic license 2756663 - for non-commercial use only - registered to hu___@sjtu.edu.cn
2026-06-13 13:02:09 - INFO - Optimize a model with 1122 rows, 517 columns and 3815 nonzeros (Min)
2026-06-13 13:02:09 - INFO - Model fingerprint: 0x093a151d
2026-06-13 13:02:09 - INFO - Model has 4 linear objective coefficients
2026-06-13 13:02:09 - INFO - Variable types: 212 continuous, 305 integer (305 binary)
2026-06-13 13:02:09 - INFO - Coefficient statistics:
2026-06-13 13:02:09 - INFO -   Matrix range     [3e-01, 8e+03]
2026-06-13 13:02:09 - INFO -   Objective range  [6e-06, 9e-02]
2026-06-13 13:02:09 - INFO -   Bounds range     [9e-01, 1e+07]
2026-06-13 13:02:09 - INFO -   RHS range        [9e-01, 3e+02]
2026-06-13 13:02:09 - INFO - 
2026-06-13 13:02:09 - INFO - Presolve removed 101 rows and 87 columns
2026-06-13 13:02:09 - INFO - Presolve time: 0.01s
2026-06-13 13:02:09 - INFO - Presolved: 1021 rows, 430 columns, 3604 nonzeros
2026-06-13 13:02:09 - INFO - Variable types: 145 continuous, 285 integer (285 binary)
2026-06-13 13:02:09 - INFO - Root relaxation presolve removed 100 rows and 24 columns
2026-06-13 13:02:09 - INFO - Root relaxation presolved: 921 rows, 424 columns, 3382 nonzeros
2026-06-13 13:02:09 - INFO - 
2026-06-13 13:02:09 - INFO - 
2026-06-13 13:02:09 - INFO - Root relaxation: objective -1.345126e+01, 207 iterations, 0.00 seconds (0.01 work units)
2026-06-13 13:02:09 - INFO - 
2026-06-13 13:02:09 - INFO -     Nodes    |    Current Node    |     Objective Bounds      |     Work
2026-06-13 13:02:09 - INFO -  Expl Unexpl |  Obj  Depth IntInf | Incumbent    BestBd   Gap | It/Node Time
2026-06-13 13:02:09 - INFO - 
2026-06-13 13:02:09 - INFO -      0     0  -13.45126    0  116          -  -13.45126      -     -    0s
2026-06-13 13:02:09 - INFO -      0     0   -7.99350    0  130          -   -7.99350      -     -    0s
2026-06-13 13:02:09 - INFO -      0     0   -7.99350    0  120          -   -7.99350      -     -    0s
2026-06-13 13:02:09 - INFO -      0     0    0.62476    0  113          -    0.62476      -     -    0s
2026-06-13 13:02:09 - INFO -      0     0    0.62476    0  114          -    0.62476      -     -    0s
2026-06-13 13:02:09 - INFO -      0     0    0.62476    0  117          -    0.62476      -     -    0s
2026-06-13 13:02:09 - INFO -      0     0    0.62476    0  114          -    0.62476      -     -    0s
2026-06-13 13:02:09 - INFO -      0     0    0.62476    0  114          -    0.62476      -     -    0s
2026-06-13 13:02:09 - INFO -      0     0    1.37025    0  121          -    1.37025      -     -    0s
2026-06-13 13:02:09 - INFO -      0     0    1.37025    0  120          -    1.37025      -     -    0s
2026-06-13 13:02:09 - INFO -      0     0    1.37025    0  101          -    1.37025      -     -    0s
2026-06-13 13:02:09 - INFO -      0     0    2.33090    0  107          -    2.33090      -     -    0s
2026-06-13 13:02:09 - INFO -      0     0    2.33090    0  109          -    2.33090      -     -    0s
2026-06-13 13:02:09 - INFO -      0     0    2.33090    0  116          -    2.33090      -     -    0s
2026-06-13 13:02:09 - INFO -      0     0    2.33090    0  117          -    2.33090      -     -    0s
2026-06-13 13:02:09 - INFO -      0     0    2.33090    0  114          -    2.33090      -     -    0s
2026-06-13 13:02:09 - INFO -      0     0    2.33090    0  120          -    2.33090      -     -    0s
2026-06-13 13:02:09 - INFO -      0     0    2.33246    0  146          -    2.33246      -     -    0s
2026-06-13 13:02:09 - INFO -      0     0    2.33246    0  145          -    2.33246      -     -    0s
2026-06-13 13:02:09 - INFO -      0     0    2.33246    0  116          -    2.33246      -     -    0s
2026-06-13 13:02:09 - INFO -      0     0    2.99139    0  131          -    2.99139      -     -    0s
2026-06-13 13:02:09 - INFO -      0     0    3.07084    0  129          -    3.07084      -     -    0s
2026-06-13 13:02:09 - INFO -      0     0    3.07243    0  132          -    3.07243      -     -    0s
2026-06-13 13:02:09 - INFO -      0     0    3.07243    0  142          -    3.07243      -     -    0s
2026-06-13 13:02:09 - INFO -      0     0    3.07243    0  143          -    3.07243      -     -    0s
2026-06-13 13:02:09 - INFO -      0     0    3.74679    0  128          -    3.74679      -     -    0s
2026-06-13 13:02:09 - INFO -      0     0    3.74679    0  127          -    3.74679      -     -    0s
2026-06-13 13:02:10 - INFO -      0     0    3.74679    0  127          -    3.74679      -     -    0s
2026-06-13 13:02:10 - INFO -      0     0    3.74679    0  127          -    3.74679      -     -    0s
2026-06-13 13:02:10 - INFO -      0     0    3.74679    0  110          -    3.74679      -     -    0s
2026-06-13 13:02:11 - INFO -      0     2    3.74679    0  109          -    3.74679      -     -    1s
2026-06-13 13:02:14 - INFO -   2270  1942    8.01081   19  172          -    4.51713      -  40.5    5s
2026-06-13 13:02:19 - INFO -  14920  6461    8.27892   26   53          -    7.12360      -  49.9   10s
2026-06-13 13:02:24 - INFO -  36654  6428    9.86991   28   39          -    8.29655      -  43.1   15s
2026-06-13 13:02:26 - INFO - 
2026-06-13 13:02:26 - INFO - Cutting planes:
2026-06-13 13:02:26 - INFO -   Learned: 15
2026-06-13 13:02:26 - INFO -   Gomory: 107
2026-06-13 13:02:26 - INFO -   Lift-and-project: 61
2026-06-13 13:02:26 - INFO -   Cover: 3
2026-06-13 13:02:26 - INFO -   Implied bound: 1
2026-06-13 13:02:26 - INFO -   MIR: 48
2026-06-13 13:02:26 - INFO -   Mixing: 1
2026-06-13 13:02:26 - INFO -   Flow cover: 344
2026-06-13 13:02:26 - INFO -   Inf proof: 17
2026-06-13 13:02:26 - INFO -   RLT: 1
2026-06-13 13:02:26 - INFO -   Relax-and-lift: 1
2026-06-13 13:02:26 - INFO - 
2026-06-13 13:02:26 - INFO - Explored 55324 nodes (2063702 simplex iterations) in 17.55 seconds (27.44 work units)
2026-06-13 13:02:26 - INFO - Thread count was 28 (of 28 available processors)
2026-06-13 13:02:26 - INFO - 
2026-06-13 13:02:26 - INFO - Solution count 0
2026-06-13 13:02:26 - INFO - 
2026-06-13 13:02:26 - INFO - Model is infeasible or unbounded
2026-06-13 13:02:26 - INFO - Best objective -, best bound -, gap -
2026-06-13 13:02:26 - INFO - Set parameter TimeLimit to value 300
2026-06-13 13:02:26 - INFO - Set parameter MIPGap to value 0.3
2026-06-13 13:02:26 - INFO - Set parameter MIPFocus to value 3
2026-06-13 13:02:26 - INFO - Set parameter Heuristics to value 0.5
2026-06-13 13:02:26 - INFO - Set parameter LogToConsole to value 1
2026-06-13 13:02:26 - INFO - Gurobi Optimizer version 13.0.1 build v13.0.1rc0 (linux64 - "Ubuntu 20.04.6 LTS")
2026-06-13 13:02:26 - INFO - 
2026-06-13 13:02:26 - INFO - CPU model: AMD Ryzen 9 9950X3D 16-Core Processor, instruction set [SSE2|AVX|AVX2|AVX512]
2026-06-13 13:02:26 - INFO - Thread count: 14 physical cores, 28 logical processors, using up to 28 threads
2026-06-13 13:02:26 - INFO - 
2026-06-13 13:02:26 - INFO - Non-default parameters:
2026-06-13 13:02:26 - INFO - TimeLimit  300
2026-06-13 13:02:26 - INFO - MIPGap  0.3
2026-06-13 13:02:26 - INFO - Heuristics  0.5
2026-06-13 13:02:26 - INFO - MIPFocus  3
2026-06-13 13:02:26 - INFO - 
2026-06-13 13:02:26 - INFO - Academic license 2756663 - for non-commercial use only - registered to hu___@sjtu.edu.cn
2026-06-13 13:02:26 - INFO - Optimize a model with 1122 rows, 517 columns and 3815 nonzeros (Min)
2026-06-13 13:02:26 - INFO - Model fingerprint: 0x093a151d
2026-06-13 13:02:26 - INFO - Model has 4 linear objective coefficients
2026-06-13 13:02:26 - INFO - Variable types: 212 continuous, 305 integer (305 binary)
2026-06-13 13:02:26 - INFO - Coefficient statistics:
2026-06-13 13:02:26 - INFO -   Matrix range     [3e-01, 8e+03]
2026-06-13 13:02:26 - INFO -   Objective range  [6e-06, 9e-02]
2026-06-13 13:02:26 - INFO -   Bounds range     [9e-01, 1e+07]
2026-06-13 13:02:26 - INFO -   RHS range        [9e-01, 3e+02]
2026-06-13 13:02:26 - INFO - 
2026-06-13 13:02:26 - INFO - Presolved: 1021 rows, 430 columns, 3604 nonzeros
2026-06-13 13:02:26 - INFO - 
2026-06-13 13:02:26 - INFO - Continuing optimization...
2026-06-13 13:02:26 - INFO - 
2026-06-13 13:02:26 - INFO - 
2026-06-13 13:02:26 - INFO - Cutting planes:
2026-06-13 13:02:26 - INFO -   Learned: 15
2026-06-13 13:02:26 - INFO -   Gomory: 107
2026-06-13 13:02:26 - INFO -   Lift-and-project: 61
2026-06-13 13:02:26 - INFO -   Cover: 3
2026-06-13 13:02:26 - INFO -   Implied bound: 1
2026-06-13 13:02:26 - INFO -   MIR: 48
2026-06-13 13:02:26 - INFO -   Mixing: 1
2026-06-13 13:02:26 - INFO -   Flow cover: 344
2026-06-13 13:02:26 - INFO -   Inf proof: 17
2026-06-13 13:02:26 - INFO -   RLT: 1
2026-06-13 13:02:26 - INFO -   Relax-and-lift: 1
2026-06-13 13:02:26 - INFO - 
2026-06-13 13:02:26 - INFO - Explored 55324 nodes (2063702 simplex iterations) in 17.56 seconds (27.44 work units)
2026-06-13 13:02:26 - INFO - Most recent optimization runtime was 0.00 seconds (0.00 work units)
2026-06-13 13:02:26 - INFO - Thread count was 28 (of 28 available processors)
2026-06-13 13:02:26 - INFO - 
2026-06-13 13:02:26 - INFO - Solution count 0
2026-06-13 13:02:26 - INFO - 
2026-06-13 13:02:26 - INFO - Model is infeasible or unbounded
2026-06-13 13:02:26 - INFO - Best objective -, best bound -, gap -
2026-06-13 13:02:26 - INFO - Set parameter TimeLimit to value 3600
2026-06-13 13:02:26 - INFO - Set parameter MIPGap to value 0.8
2026-06-13 13:02:26 - INFO - Set parameter MIPFocus to value 3
2026-06-13 13:02:26 - INFO - Set parameter Heuristics to value 0.5
2026-06-13 13:02:26 - INFO - Set parameter LogToConsole to value 1
2026-06-13 13:02:26 - INFO - Gurobi Optimizer version 13.0.1 build v13.0.1rc0 (linux64 - "Ubuntu 20.04.6 LTS")
2026-06-13 13:02:26 - INFO - 
2026-06-13 13:02:26 - INFO - CPU model: AMD Ryzen 9 9950X3D 16-Core Processor, instruction set [SSE2|AVX|AVX2|AVX512]
2026-06-13 13:02:26 - INFO - Thread count: 14 physical cores, 28 logical processors, using up to 28 threads
2026-06-13 13:02:26 - INFO - 
2026-06-13 13:02:26 - INFO - Non-default parameters:
2026-06-13 13:02:26 - INFO - TimeLimit  3600
2026-06-13 13:02:26 - INFO - MIPGap  0.8
2026-06-13 13:02:26 - INFO - Heuristics  0.5
2026-06-13 13:02:26 - INFO - MIPFocus  3
2026-06-13 13:02:26 - INFO - 
2026-06-13 13:02:26 - INFO - Academic license 2756663 - for non-commercial use only - registered to hu___@sjtu.edu.cn
2026-06-13 13:02:26 - INFO - Optimize a model with 1122 rows, 517 columns and 3815 nonzeros (Min)
2026-06-13 13:02:26 - INFO - Model fingerprint: 0x093a151d
2026-06-13 13:02:26 - INFO - Model has 4 linear objective coefficients
2026-06-13 13:02:26 - INFO - Variable types: 212 continuous, 305 integer (305 binary)
2026-06-13 13:02:26 - INFO - Coefficient statistics:
2026-06-13 13:02:26 - INFO -   Matrix range     [3e-01, 8e+03]
2026-06-13 13:02:26 - INFO -   Objective range  [6e-06, 9e-02]
2026-06-13 13:02:26 - INFO -   Bounds range     [9e-01, 1e+07]
2026-06-13 13:02:26 - INFO -   RHS range        [9e-01, 3e+02]
2026-06-13 13:02:26 - INFO - 
2026-06-13 13:02:26 - INFO - Presolved: 1021 rows, 430 columns, 3604 nonzeros
2026-06-13 13:02:26 - INFO - 
2026-06-13 13:02:26 - INFO - Continuing optimization...
2026-06-13 13:02:26 - INFO - 
2026-06-13 13:02:26 - INFO - 
2026-06-13 13:02:26 - INFO - Cutting planes:
2026-06-13 13:02:26 - INFO -   Learned: 15
2026-06-13 13:02:26 - INFO -   Gomory: 107
2026-06-13 13:02:26 - INFO -   Lift-and-project: 61
2026-06-13 13:02:26 - INFO -   Cover: 3
2026-06-13 13:02:26 - INFO -   Implied bound: 1
2026-06-13 13:02:26 - INFO -   MIR: 48
2026-06-13 13:02:26 - INFO -   Mixing: 1
2026-06-13 13:02:26 - INFO -   Flow cover: 344
2026-06-13 13:02:26 - INFO -   Inf proof: 17
2026-06-13 13:02:26 - INFO -   RLT: 1
2026-06-13 13:02:26 - INFO -   Relax-and-lift: 1
2026-06-13 13:02:26 - INFO - 
2026-06-13 13:02:26 - INFO - Explored 55324 nodes (2063702 simplex iterations) in 17.56 seconds (27.44 work units)
2026-06-13 13:02:26 - INFO - Most recent optimization runtime was 0.00 seconds (0.00 work units)
2026-06-13 13:02:26 - INFO - Thread count was 28 (of 28 available processors)
2026-06-13 13:02:26 - INFO - 
2026-06-13 13:02:26 - INFO - Solution count 0
2026-06-13 13:Model is infeasi2026-06-13 13:02:Best objective -, best bound -, gap -
[EMIB] No feasible solution: MIPGap=0.8, status=4, time=0.00s, SolCount=0
2026-06-13 13:02:26 - INFO - 
EMIB returned  ✓ EMIB: 0 solution(s)
